local_stuff/sygus_stuff/sygus_inv_oai/sygus_cvc5/cvc_output/91.c.out
STDOUT:
(
(define-fun inv-f ((x Int) (y Int) (x_0 Int) (y_0 Int) (y_1 Int) (y_2 Int)) Bool (and (= x 0) (= y 0) (or (>= y_1 0) (not (= y_1 0)) (not (= x_0 0)))))
)
